
%    +---------------+
% 10 | | | | | | | | |
% 9  | | | | | | | | |
% 8  | | | |4| | | | |
% 7  | | | | | | | | |
% 6  | | | | |8| | | |
% 5  | | |1|1| | | | |
% 4  | | |1|1| | |7| |
% 3  | | | | |5| | | |
% 2  | | | | |3| |6| |
% 1  | | | | |2| | | |
%    +---------------+
n=8;
m=10;
h=2;
%maxT=45;
boxNumber=8;
boxSideLen = [2, 1, 1, 1, 1, 1, 1, 1];
boxStartX  = [3, 5, 5, 4, 5, 7, 7, 5];
boxStartY  = [4, 1, 2, 8, 3, 2, 4, 6];
